language Essence 1.3

letting course_load be
        function(1 --> 19, 2 --> 6, 3 --> 6, 4 --> 9, 5 --> 3, 6 --> 1, 7 --> 16, 8 --> 3, 9 --> 1, 10 --> 3, 11 --> 3,
                 12 --> 2, 13 --> 13, 14 --> 17, 15 --> 20, 16 --> 4, 17 --> 1, 18 --> 3, 19 --> 22, 20 --> 20,
                 21 --> 4, 22 --> 5, 23 --> 4, 24 --> 15, 25 --> 18, 26 --> 15, 27 --> 2, 28 --> 22, 29 --> 18,
                 30 --> 4, 31 --> 17, 32 --> 12, 33 --> 1, 34 --> 1, 35 --> 6, 36 --> 13)
letting courses_per_period_lb be 3
letting courses_per_period_ub be 9
letting load_per_period_lb be 32
letting load_per_period_ub be 33
letting n_courses be 36
letting n_periods be 10
letting prerequisite be
        relation((28, 2), (28, 3), (28, 4), (28, 5), (28, 7), (28, 8), (28, 9), (28, 10), (28, 11), (28, 13), (28, 14),
                 (28, 15), (28, 16), (28, 20), (29, 2), (29, 3), (29, 5), (29, 6), (29, 7), (29, 9), (29, 10), (29, 11),
                 (29, 12), (29, 13), (29, 14), (29, 15), (29, 16), (29, 18), (29, 19), (29, 20), (30, 2), (30, 3),
                 (30, 5), (30, 6), (30, 7), (30, 8), (30, 9), (30, 10), (30, 11), (30, 12), (30, 13), (30, 14),
                 (30, 15), (30, 16), (30, 17), (30, 19), (30, 20), (31, 2), (31, 3), (31, 4), (31, 5), (31, 6), (31, 7),
                 (31, 8), (31, 9), (31, 10), (31, 11), (31, 12), (31, 13), (31, 14), (31, 15), (31, 16), (31, 17),
                 (31, 18), (31, 19), (31, 20), (32, 3), (32, 4), (32, 5), (32, 6), (32, 7), (32, 8), (32, 9), (32, 10),
                 (32, 11), (32, 12), (32, 13), (32, 14), (32, 15), (32, 16), (32, 17), (32, 18), (32, 19), (32, 20),
                 (33, 2), (33, 3), (33, 4), (33, 5), (33, 6), (33, 7), (33, 8), (33, 9), (33, 10), (33, 11), (33, 12),
                 (33, 13), (33, 14), (33, 15), (33, 16), (33, 17), (33, 18), (33, 19), (33, 20), (34, 2), (34, 3),
                 (34, 4), (34, 5), (34, 7), (34, 8), (34, 9), (34, 10), (34, 11), (34, 12), (34, 13), (34, 14),
                 (34, 15), (34, 16), (34, 17), (34, 18), (34, 19), (34, 20), (35, 2), (35, 3), (35, 4), (35, 5),
                 (35, 6), (35, 7), (35, 8), (35, 9), (35, 10), (35, 11), (35, 12), (35, 13), (35, 15), (35, 16),
                 (35, 17), (35, 18), (35, 19), (35, 20), (36, 4), (36, 5), (36, 6), (36, 7), (36, 8), (36, 9), (36, 10),
                 (36, 12), (36, 13), (36, 14), (36, 15), (36, 17), (36, 18), (36, 19), (36, 20))
$ Visualisation for prerequisite
$ 28  2
$ 28  3
$ 28  4
$ 28  5
$ 28  7
$ 28  8
$ 28  9
$ 28 10
$ 28 11
$ 28 13
$ 28 14
$ 28 15
$ 28 16
$ 28 20
$ 29  2
$ 29  3
$ 29  5
$ 29  6
$ 29  7
$ 29  9
$ 29 10
$ 29 11
$ 29 12
$ 29 13
$ 29 14
$ 29 15
$ 29 16
$ 29 18
$ 29 19
$ 29 20
$ 30  2
$ 30  3
$ 30  5
$ 30  6
$ 30  7
$ 30  8
$ 30  9
$ 30 10
$ 30 11
$ 30 12
$ 30 13
$ 30 14
$ 30 15
$ 30 16
$ 30 17
$ 30 19
$ 30 20
$ 31  2
$ 31  3
$ 31  4
$ 31  5
$ 31  6
$ 31  7
$ 31  8
$ 31  9
$ 31 10
$ 31 11
$ 31 12
$ 31 13
$ 31 14
$ 31 15
$ 31 16
$ 31 17
$ 31 18
$ 31 19
$ 31 20
$ 32  3
$ 32  4
$ 32  5
$ 32  6
$ 32  7
$ 32  8
$ 32  9
$ 32 10
$ 32 11
$ 32 12
$ 32 13
$ 32 14
$ 32 15
$ 32 16
$ 32 17
$ 32 18
$ 32 19
$ 32 20
$ 33  2
$ 33  3
$ 33  4
$ 33  5
$ 33  6
$ 33  7
$ 33  8
$ 33  9
$ 33 10
$ 33 11
$ 33 12
$ 33 13
$ 33 14
$ 33 15
$ 33 16
$ 33 17
$ 33 18
$ 33 19
$ 33 20
$ 34  2
$ 34  3
$ 34  4
$ 34  5
$ 34  7
$ 34  8
$ 34  9
$ 34 10
$ 34 11
$ 34 12
$ 34 13
$ 34 14
$ 34 15
$ 34 16
$ 34 17
$ 34 18
$ 34 19
$ 34 20
$ 35  2
$ 35  3
$ 35  4
$ 35  5
$ 35  6
$ 35  7
$ 35  8
$ 35  9
$ 35 10
$ 35 11
$ 35 12
$ 35 13
$ 35 15
$ 35 16
$ 35 17
$ 35 18
$ 35 19
$ 35 20
$ 36  4
$ 36  5
$ 36  6
$ 36  7
$ 36  8
$ 36  9
$ 36 10
$ 36 12
$ 36 13
$ 36 14
$ 36 15
$ 36 17
$ 36 18
$ 36 19
$ 36 20

